Maximize
  - 39 x0 - 45 x1 + 0 x2 + 31 x3 - 8 x4 - 12 x5 + 44 x6 + 15 x7 + 5 x8
   + 27 x9 + 15 x10 + 0 x11 + 33 x12 - 33 x13 + 26 x14 - 8 x15 - 49 x16
   - 35 x17 + 32 x18 - 48 x19 + 0 x20 + 47 x21 - 25 x22 - 40 x23 - 33 x24
   + 25 x25 - 47 x26 - 42 x27 + 33 x28 - 25 x29 - 14 x30 + 17 x31 - 7 x32
   - 44 x33 - 21 x34 + 23 x35 + 39 x36 - 16 x37 + 7 x38 + 21 x39 + [
   80 x0 * x2 + 6 x0 * x4 - 34 x0 * x5 - 34 x0 * x7 + 90 x0 * x8
   - 42 x0 * x9 + 32 x0 * x10 + 34 x0 * x11 + 84 x0 * x12 - 20 x0 * x13
   + 46 x0 * x14 - 78 x0 * x15 + 4 x0 * x16 - 4 x0 * x17 - 44 x0 * x18
   + 70 x0 * x19 - 54 x0 * x20 - 72 x0 * x21 - 70 x0 * x22 + 26 x0 * x23
   - 26 x0 * x24 + 74 x0 * x25 - 38 x0 * x26 - 88 x0 * x27 - 38 x0 * x28
   + 70 x0 * x29 - 42 x0 * x30 - 24 x0 * x31 + 72 x0 * x32 - 82 x0 * x33
   + 28 x0 * x34 - 12 x0 * x35 + 92 x0 * x36 + 16 x0 * x37 + 2 x0 * x38
   - 30 x0 * x39 - 23 x1 ^2 - 64 x1 * x2 + 6 x1 * x3 - 60 x1 * x4
   - 12 x1 * x5 - 58 x1 * x6 - 80 x1 * x7 + 62 x1 * x8 - 74 x1 * x9
   - 20 x1 * x10 - 72 x1 * x11 + 8 x1 * x12 + 32 x1 * x13 - 84 x1 * x15
   - 46 x1 * x16 - 38 x1 * x17 - 54 x1 * x18 - 92 x1 * x19 - 58 x1 * x20
   - 56 x1 * x21 - 22 x1 * x22 - 14 x1 * x23 + 58 x1 * x25 + 82 x1 * x26
   - 24 x1 * x27 - 62 x1 * x28 - 44 x1 * x29 + 2 x1 * x30 - 16 x1 * x31
   + 30 x1 * x32 + 92 x1 * x33 - 94 x1 * x34 + 88 x1 * x35 - 94 x1 * x36
   - 22 x1 * x37 + 52 x1 * x38 + 78 x1 * x39 - 17 x2 ^2 - 58 x2 * x3
   - 64 x2 * x4 - 20 x2 * x5 + 4 x2 * x7 - 52 x2 * x9 + 30 x2 * x11
   + 90 x2 * x12 - 94 x2 * x13 + 14 x2 * x15 - 16 x2 * x16 - 34 x2 * x17
   - 58 x2 * x19 + 84 x2 * x20 + 46 x2 * x21 + 70 x2 * x22 - 40 x2 * x23
   + 80 x2 * x24 + 12 x2 * x25 + 46 x2 * x26 - 98 x2 * x27 + 18 x2 * x28
   + 92 x2 * x29 + 86 x2 * x31 + 46 x2 * x32 + 12 x2 * x33 + 4 x2 * x35
   + 32 x2 * x36 - 72 x2 * x37 - 84 x2 * x38 - 90 x2 * x39 + 44 x3 ^2
   - 88 x3 * x4 + 62 x3 * x5 - 38 x3 * x6 - 42 x3 * x7 + 22 x3 * x8
   - 78 x3 * x9 - 8 x3 * x10 + 96 x3 * x11 - 80 x3 * x12 - 96 x3 * x13
   + 62 x3 * x14 - 64 x3 * x17 + 14 x3 * x18 - 4 x3 * x19 + 32 x3 * x20
   + 20 x3 * x21 + 28 x3 * x22 + 90 x3 * x23 + 20 x3 * x24 - 84 x3 * x25
   - 24 x3 * x26 - 8 x3 * x27 + 58 x3 * x28 + 90 x3 * x29 + 88 x3 * x30
   + 94 x3 * x31 + 10 x3 * x32 - 18 x3 * x33 - 18 x3 * x35 - 10 x3 * x36
   - 86 x3 * x37 + 28 x3 * x38 + 94 x3 * x39 - 30 x4 ^2 - 8 x4 * x5
   + 70 x4 * x6 + 62 x4 * x7 - 72 x4 * x8 + 82 x4 * x9 + 92 x4 * x11
   + 50 x4 * x13 - 96 x4 * x14 - 50 x4 * x15 + 24 x4 * x16 + 92 x4 * x18
   - 56 x4 * x19 - 82 x4 * x20 - 50 x4 * x21 + 16 x4 * x22 + 76 x4 * x23
   - 74 x4 * x27 + 50 x4 * x29 + 94 x4 * x30 - 76 x4 * x31 + 26 x4 * x32
   - 66 x4 * x33 + 80 x4 * x34 + 62 x4 * x35 + 64 x4 * x36 + 18 x4 * x37
   + 38 x4 * x38 + 54 x4 * x39 + 5 x5 ^2 + 90 x5 * x8 - 84 x5 * x9
   - 10 x5 * x10 - 6 x5 * x11 + 54 x5 * x12 - 90 x5 * x13 + 98 x5 * x14
   - 32 x5 * x15 - 88 x5 * x16 + 40 x5 * x18 + 42 x5 * x20 - 60 x5 * x21
   + 84 x5 * x22 + 60 x5 * x23 - 26 x5 * x24 - 92 x5 * x25 + 8 x5 * x26
   - 74 x5 * x27 - 90 x5 * x30 + 94 x5 * x31 + 98 x5 * x32 - 32 x5 * x33
   - 50 x5 * x34 + 2 x5 * x35 + 2 x5 * x36 + 50 x5 * x37 - 72 x5 * x38
   - 90 x5 * x39 - 25 x6 ^2 + 76 x6 * x7 + 4 x6 * x8 + 30 x6 * x9
   - 94 x6 * x10 + 14 x6 * x11 + 2 x6 * x12 + 76 x6 * x13 - 36 x6 * x14
   - 46 x6 * x15 + 96 x6 * x16 + 14 x6 * x17 - 26 x6 * x18 + 82 x6 * x19
   + 70 x6 * x20 - 90 x6 * x21 + 56 x6 * x22 + 18 x6 * x23 + 42 x6 * x24
   + 72 x6 * x26 - 82 x6 * x27 - 20 x6 * x28 - 94 x6 * x29 - 40 x6 * x30
   - 24 x6 * x31 + 50 x6 * x32 + 6 x6 * x33 + 24 x6 * x34 + 82 x6 * x35
   - 54 x6 * x36 + 64 x6 * x37 - 88 x6 * x38 + 46 x6 * x39 + 60 x7 * x9
   + 6 x7 * x10 - 72 x7 * x11 + 80 x7 * x13 - 94 x7 * x14 - 10 x7 * x15
   + 80 x7 * x16 - 84 x7 * x17 + 84 x7 * x18 - 64 x7 * x19 - 56 x7 * x20
   + 80 x7 * x21 + 2 x7 * x22 - 52 x7 * x23 - 94 x7 * x24 + 18 x7 * x25
   - 50 x7 * x27 - 82 x7 * x28 - 32 x7 * x29 - 8 x7 * x30 - 40 x7 * x31
   + 10 x7 * x32 + 52 x7 * x33 - 44 x7 * x34 + 58 x7 * x35 + 76 x7 * x36
   + 74 x7 * x37 - 14 x7 * x38 + 40 x7 * x39 - 44 x8 ^2 - 6 x8 * x9
   - 98 x8 * x10 + 90 x8 * x11 - 36 x8 * x12 + 66 x8 * x13 - 98 x8 * x14
   + 46 x8 * x16 + 94 x8 * x17 + 32 x8 * x18 + 42 x8 * x20 + 14 x8 * x21
   - 14 x8 * x23 + 12 x8 * x24 - 16 x8 * x25 + 20 x8 * x26 - 38 x8 * x27
   - 52 x8 * x28 + 4 x8 * x29 + 2 x8 * x30 - 18 x8 * x31 + 70 x8 * x32
   + 32 x8 * x33 - 20 x8 * x34 - 30 x8 * x35 + 90 x8 * x36 - 52 x8 * x37
   - 78 x8 * x38 + 14 x8 * x39 + 88 x9 * x10 + 70 x9 * x11 + 54 x9 * x12
   - 20 x9 * x13 - 28 x9 * x14 - 18 x9 * x15 + 92 x9 * x16 + 56 x9 * x18
   - 70 x9 * x19 + 26 x9 * x21 + 10 x9 * x22 + 42 x9 * x23 + 60 x9 * x24
   - 84 x9 * x25 - 44 x9 * x26 + 50 x9 * x27 + 70 x9 * x28 + 48 x9 * x30
   - 18 x9 * x31 + 72 x9 * x32 + 48 x9 * x33 + 90 x9 * x35 - 30 x9 * x36
   + 96 x9 * x37 - 70 x9 * x38 - 58 x9 * x39 - 5 x10 ^2 - 92 x10 * x11
   + 60 x10 * x12 + 46 x10 * x13 - 62 x10 * x14 - 92 x10 * x15
   + 68 x10 * x16 + 70 x10 * x17 + 94 x10 * x18 + 80 x10 * x19
   + 14 x10 * x20 + 14 x10 * x21 + 22 x10 * x22 + 38 x10 * x23
   + 52 x10 * x24 + 96 x10 * x26 + 64 x10 * x27 - 76 x10 * x28
   - 32 x10 * x29 - 24 x10 * x30 - 96 x10 * x31 - 24 x10 * x32
   - 90 x10 * x33 - 22 x10 * x34 + 44 x10 * x35 + 68 x10 * x36
   + 16 x10 * x38 + 82 x10 * x39 + 49 x11 ^2 - 20 x11 * x13 - 86 x11 * x14
   - 56 x11 * x15 - 50 x11 * x16 - 70 x11 * x17 - 4 x11 * x18
   + 16 x11 * x19 + 10 x11 * x20 + 26 x11 * x21 + 42 x11 * x22
   + 76 x11 * x23 - 66 x11 * x24 + 90 x11 * x25 - 56 x11 * x26
   + 74 x11 * x27 - 18 x11 * x28 - 26 x11 * x29 - 28 x11 * x30
   + 56 x11 * x32 - 88 x11 * x33 + 72 x11 * x34 - 94 x11 * x35
   + 74 x11 * x37 + 88 x11 * x38 + 38 x11 * x39 - 21 x12 ^2 + 50 x12 * x13
   - 46 x12 * x14 - 66 x12 * x15 + 14 x12 * x16 - 66 x12 * x17
   + 58 x12 * x18 + 82 x12 * x19 + 72 x12 * x20 + 22 x12 * x21
   + 90 x12 * x22 + 14 x12 * x23 + 94 x12 * x24 - 42 x12 * x25
   + 40 x12 * x26 + 10 x12 * x27 - 66 x12 * x28 - 66 x12 * x29
   - 94 x12 * x31 + 20 x12 * x32 + 68 x12 * x33 - 20 x12 * x34
   + 96 x12 * x35 + 56 x12 * x36 + 96 x12 * x37 - 68 x12 * x38
   - 98 x12 * x39 - 38 x13 ^2 + 28 x13 * x14 - 70 x13 * x15 + 94 x13 * x16
   + 82 x13 * x17 - 74 x13 * x18 + 14 x13 * x19 - 68 x13 * x20
   - 44 x13 * x21 + 2 x13 * x22 + 68 x13 * x23 - 6 x13 * x24 + 56 x13 * x25
   + 44 x13 * x26 - 18 x13 * x27 - 92 x13 * x28 + 30 x13 * x29
   - 48 x13 * x30 + 12 x13 * x31 - 28 x13 * x33 - 14 x13 * x35
   - 90 x13 * x36 - 18 x13 * x37 - 96 x13 * x38 + 50 x13 * x39
   + 8 x14 * x15 + 56 x14 * x17 + 48 x14 * x18 - 46 x14 * x19
   - 46 x14 * x20 + 74 x14 * x21 + 22 x14 * x22 + 36 x14 * x23
   - 26 x14 * x25 - 40 x14 * x26 - 52 x14 * x27 + 18 x14 * x28
   + 8 x14 * x29 - 30 x14 * x30 + 26 x14 * x31 + 82 x14 * x32
   + 98 x14 * x33 + 8 x14 * x34 + 64 x14 * x35 + 74 x14 * x36
   - 46 x14 * x37 - 70 x14 * x38 + 78 x14 * x39 + 26 x15 ^2 - 96 x15 * x16
   + 32 x15 * x17 - 66 x15 * x18 + 82 x15 * x19 - 28 x15 * x20
   + 78 x15 * x21 + 34 x15 * x22 - 40 x15 * x23 + 2 x15 * x24
   - 58 x15 * x25 + 48 x15 * x27 + 68 x15 * x28 - 24 x15 * x30
   - 70 x15 * x31 - 42 x15 * x32 - 90 x15 * x33 - 70 x15 * x34
   - 78 x15 * x35 - 14 x15 * x36 + 56 x15 * x37 + 70 x15 * x38
   - 20 x15 * x39 + 22 x16 ^2 + 18 x16 * x17 + 18 x16 * x18 + 98 x16 * x19
   - 64 x16 * x20 - 60 x16 * x21 - 20 x16 * x22 - 62 x16 * x23
   + 62 x16 * x24 - 88 x16 * x25 + 24 x16 * x26 + 12 x16 * x27
   - 6 x16 * x28 + 50 x16 * x29 - 82 x16 * x30 + 60 x16 * x31
   - 16 x16 * x32 - 44 x16 * x33 - 48 x16 * x34 + 94 x16 * x35
   + 34 x16 * x36 - 98 x16 * x37 - 16 x16 * x38 - 58 x16 * x39 - 47 x17 ^2
   + 96 x17 * x18 + 60 x17 * x19 - 38 x17 * x20 + 54 x17 * x21
   + 66 x17 * x22 - 46 x17 * x23 - 82 x17 * x24 - 82 x17 * x27
   - 44 x17 * x28 - 24 x17 * x29 - 62 x17 * x31 + 16 x17 * x32
   + 70 x17 * x33 + 68 x17 * x35 - 16 x17 * x36 - 60 x17 * x37
   - 12 x17 * x38 + 16 x17 * x39 + 25 x18 ^2 + 18 x18 * x19 + 8 x18 * x20
   - 98 x18 * x21 - 48 x18 * x22 + 22 x18 * x23 + 44 x18 * x24
   - 34 x18 * x25 + 26 x18 * x26 - 10 x18 * x27 + 98 x18 * x28
   + 24 x18 * x29 + 44 x18 * x31 + 62 x18 * x32 - 92 x18 * x34
   - 96 x18 * x35 + 24 x18 * x36 - 60 x18 * x37 - 40 x18 * x38
   - 62 x18 * x39 + 20 x19 ^2 - 4 x19 * x20 + 2 x19 * x21 - 28 x19 * x22
   - 10 x19 * x23 - 14 x19 * x24 + 56 x19 * x25 + 98 x19 * x26
   - 86 x19 * x27 - 2 x19 * x28 - 18 x19 * x30 - 98 x19 * x31
   - 92 x19 * x32 + 52 x19 * x33 - 26 x19 * x34 + 18 x19 * x35
   + 2 x19 * x37 + 76 x19 * x38 + 76 x19 * x39 - 20 x20 ^2 + 38 x20 * x21
   + 94 x20 * x22 + 4 x20 * x23 + 96 x20 * x24 - 98 x20 * x25
   - 66 x20 * x26 + 12 x20 * x27 + 6 x20 * x28 + 2 x20 * x31 - 86 x20 * x32
   - 94 x20 * x33 - 78 x20 * x34 - 4 x20 * x35 - 40 x20 * x36 + 4 x20 * x37
   - 54 x20 * x38 - 72 x20 * x39 + 38 x21 ^2 + 80 x21 * x22 + 42 x21 * x24
   - 62 x21 * x25 + 34 x21 * x26 - 58 x21 * x27 - 84 x21 * x28
   - 42 x21 * x29 + 80 x21 * x30 + 8 x21 * x32 + 32 x21 * x33
   - 78 x21 * x34 - 14 x21 * x36 - 68 x21 * x37 - 62 x21 * x38
   - 30 x21 * x39 - 43 x22 ^2 - 46 x22 * x23 - 2 x22 * x24 + 74 x22 * x25
   - 76 x22 * x26 + 54 x22 * x27 - 16 x22 * x28 - 98 x22 * x30
   + 48 x22 * x32 - 2 x22 * x33 + 78 x22 * x34 - 50 x22 * x35
   - 56 x22 * x36 + 34 x22 * x37 + 68 x22 * x38 + 27 x23 ^2 + 18 x23 * x24
   + 46 x23 * x25 - 22 x23 * x26 + 2 x23 * x27 + 20 x23 * x29
   - 50 x23 * x30 - 58 x23 * x31 + 56 x23 * x33 - 44 x23 * x34
   + 72 x23 * x35 + 96 x23 * x36 - 2 x23 * x37 - 36 x23 * x39 + 2 x24 ^2
   - 28 x24 * x25 + 64 x24 * x27 - 26 x24 * x28 - 58 x24 * x29
   + 90 x24 * x30 + 14 x24 * x31 - 44 x24 * x32 - 40 x24 * x33
   - 52 x24 * x34 - 16 x24 * x35 + 86 x24 * x36 - 94 x24 * x38
   - 26 x24 * x39 - 64 x25 * x26 + 18 x25 * x27 + 30 x25 * x28
   + 40 x25 * x29 - 64 x25 * x30 - 98 x25 * x31 - 86 x25 * x32
   - 98 x25 * x33 - 62 x25 * x34 + 62 x25 * x35 + 88 x25 * x36
   - 98 x25 * x37 - 18 x25 * x38 + 28 x25 * x39 + 28 x26 ^2 - 96 x26 * x27
   - 20 x26 * x28 + 64 x26 * x29 + 24 x26 * x30 - 68 x26 * x31
   - 40 x26 * x32 - 74 x26 * x33 + 56 x26 * x35 - 42 x26 * x36
   - 52 x26 * x37 - 92 x26 * x38 - 88 x26 * x39 + 5 x27 ^2 + 38 x27 * x28
   + 28 x27 * x29 - 46 x27 * x30 + 56 x27 * x31 - 22 x27 * x32
   + 56 x27 * x33 - 12 x27 * x34 - 74 x27 * x35 + 10 x27 * x36
   - 74 x27 * x37 - 88 x27 * x38 - 46 x27 * x39 - 31 x28 ^2 - 34 x28 * x29
   + 14 x28 * x30 - 92 x28 * x31 + 74 x28 * x32 + 16 x28 * x33
   - 10 x28 * x36 + 38 x28 * x37 - 18 x28 * x38 - 50 x28 * x39 + 42 x29 ^2
   - 26 x29 * x30 + 76 x29 * x32 + 88 x29 * x33 - 34 x29 * x34
   + 88 x29 * x36 - 46 x29 * x37 + 32 x29 * x38 - 4 x29 * x39 + 14 x30 ^2
   - 4 x30 * x31 + 96 x30 * x33 - 60 x30 * x34 + 12 x30 * x35
   - 20 x30 * x36 + 72 x30 * x37 + 82 x30 * x39 + 20 x31 ^2 + 2 x31 * x32
   + 22 x31 * x33 + 24 x31 * x34 - 32 x31 * x35 + 68 x31 * x37
   - 72 x31 * x38 + 46 x31 * x39 - 44 x32 ^2 + 10 x32 * x33 + 8 x32 * x34
   + 50 x32 * x35 + 80 x32 * x36 - 74 x32 * x37 - 44 x32 * x38
   - 40 x32 * x39 + 8 x33 ^2 + 82 x33 * x34 + 92 x33 * x35 - 26 x33 * x36
   - 32 x33 * x38 - 10 x33 * x39 - 22 x34 ^2 + 86 x34 * x35 + 24 x34 * x36
   - 6 x34 * x37 - 26 x34 * x38 - 20 x34 * x39 + 24 x35 ^2 + 2 x35 * x37
   - 64 x35 * x39 - 17 x36 ^2 + 40 x36 * x37 - 36 x36 * x38 + 34 x37 ^2
   - 56 x37 * x38 - 80 x37 * x39 - 50 x38 * x39 + 32 x39 ^2 ] / 2 
Subject To
Bounds
 x0 <= 1
 x1 <= 1
 x2 <= 1
 x3 <= 1
 x4 <= 1
 x5 <= 1
 x6 <= 1
 x7 <= 1
 x8 <= 1
 x9 <= 1
 x10 <= 1
 x11 <= 1
 x12 <= 1
 x13 <= 1
 x14 <= 1
 x15 <= 1
 x16 <= 1
 x17 <= 1
 x18 <= 1
 x19 <= 1
 x20 <= 1
 x21 <= 1
 x22 <= 1
 x23 <= 1
 x24 <= 1
 x25 <= 1
 x26 <= 1
 x27 <= 1
 x28 <= 1
 x29 <= 1
 x30 <= 1
 x31 <= 1
 x32 <= 1
 x33 <= 1
 x34 <= 1
 x35 <= 1
 x36 <= 1
 x37 <= 1
 x38 <= 1
 x39 <= 1
End
